PARAMETER_FILE = even/even_uncomplete_graph_new/de/par/random145.par
PROBLEM_FILE = even/even_uncomplete_graph_new/de/mat/random145.tsp
Successes/Runs = 0/10
Cost.min = 900, Cost.avg = 900.00, Cost.max = 900
Gap.min = 0.0000%, Gap.avg = 0.0000%, Gap.max = 0.0000%
Trials.min = 1000, Trials.avg = 1000.0, Trials.max = 1000
Time.min = 0.58 sec., Time.avg = 0.64 sec., Time.max = 0.73 sec.
Time.total = 6.53 sec.
请按任意键继续. . . 
